
Gurobi 11.0.3 (linux64) logging started Thu Nov 21 12:28:17 2024

Set parameter LogFile to value "/home/yihong/Coding/OR_SUC/SUC_results_bigM100000_thread4/case24_ieee_rts_theta0.5_epsilon0.05_gurobi_seed20000_num_gen100_N_WDR100_load_scaling_factor1_exact_T24quadra_cost.txt"
Set parameter TimeLimit to value 3600
Gurobi Optimizer version 11.0.3 build v11.0.3rc0 (linux64 - "Ubuntu 20.04.6 LTS")

CPU model: AMD EPYC 7532 32-Core Processor, instruction set [SSE2|AVX|AVX2]
Thread count: 64 physical cores, 128 logical processors, using up to 4 threads

Optimize a model with 57659 rows, 29961 columns and 1325658 nonzeros
Model fingerprint: 0xf0ba93dc
Model has 2400 quadratic constraints
Variable types: 27461 continuous, 2500 integer (2500 binary)
Coefficient statistics:
  Matrix range     [5e-05, 1e+05]
  QMatrix range    [2e-03, 8e-03]
  QLMatrix range   [2e-02, 6e+01]
  Objective range  [1e+00, 1e+00]
  Bounds range     [1e+00, 1e+00]
  RHS range        [1e+00, 1e+05]
Presolve removed 47183 rows and 12743 columns
Presolve time: 0.42s
Presolved: 10476 rows, 17218 columns, 60453 nonzeros
Presolved model has 2400 quadratic constraint(s)
Variable types: 14727 continuous, 2491 integer (2491 binary)

Root relaxation: objective 4.952104e+04, 8284 iterations, 0.27 seconds (0.37 work units)

    Nodes    |    Current Node    |     Objective Bounds      |     Work
 Expl Unexpl |  Obj  Depth IntInf | Incumbent    BestBd   Gap | It/Node Time

     0     0 49521.0375    0   13          - 49521.0375      -     -    0s
     0     0 343851.088    0  698          - 343851.088      -     -    1s
     0     0 373114.511    0  700          - 373114.511      -     -    1s
     0     0 625104.133    0  650          - 625104.133      -     -    1s
     0     0 625339.538    0  559          - 625339.538      -     -    1s
     0     0 626311.364    0  485          - 626311.364      -     -    2s
     0     0 626563.034    0  449          - 626563.034      -     -    2s
     0     0 626606.236    0  447          - 626606.236      -     -    2s
     0     0 626609.907    0  447          - 626609.907      -     -    2s
     0     2 626609.907    0  447          - 626609.907      -     -    2s
H  945   324                    626790.46375 626622.620  0.03%  11.7    5s
*  945   324             241    626790.46375 626622.620  0.03%  11.7    5s

Cutting planes:
  Gomory: 11
  Implied bound: 347
  MIR: 116
  Flow cover: 122
  Relax-and-lift: 37

Explored 1000 nodes (35688 simplex iterations) in 5.61 seconds (7.41 work units)
Thread count was 4 (of 128 available processors)

Solution count 2: 626790 626790 

Optimal solution found (tolerance 1.00e-03)
Warning: max constraint violation (2.2733e-07) exceeds tolerance
Best objective 6.267904637518e+05, best bound 6.266226197653e+05, gap 0.0268%
